Minimize
  cst_0_phi_116_flop + cst_1_phi_220_flop + start_0_forkC_58_flop + cst_10_phi_n265_flop + forkC_5_cst_00_flop + forkC_5_cst_12_flop + forkC_5_cst_106_flop + forkC_5_phiC_163_flop + forkC_5_phiC_370_flop + load_6_MC_edges207_flop + load_10_MC_edges208_flop + load_13_LSQ_vertices198_flop + load_16_LSQ_vertices199_flop + forkC_0_LSQ_vertices196_flop + branch_3_sink_2214_flop + branch_4_sink_3215_flop + branchC_11_sink_4216_flop + branchC_12_sink_5217_flop + store_0_LSQ_vertices200_flop + store_0_LSQ_vertices201_flop + store_1_LSQ_vertices202_flop + store_1_LSQ_vertices203_flop + forkC_1_LSQ_vertices197_flop + branchC_0_sink_0212_flop + branch_1_ret_0194_flop + branch_2_sink_1213_flop + ret_0_end_0220_flop + LSQ_vertices_load_1340_flop + LSQ_vertices_load_1644_flop + LSQ_vertices_end_0218_flop + MC_edges_load_627_flop + MC_edges_load_1036_flop + MC_edges_end_0219_flop
Subject to
  timePath_cst_0_out1 <= 4
  timePath_phi_1_in3 <= 4
  8 cst_0_phi_116_flop - timePath_cst_0_out1 + timePath_phi_1_in3 >= 0
  timePath_cst_1_out1 <= 4
  timePath_phi_2_in3 <= 4
  8 cst_1_phi_220_flop - timePath_cst_1_out1 + timePath_phi_2_in3 >= 0
  timePath_start_0_out1 <= 4
  timePath_forkC_5_in1 <= 4
  8 start_0_forkC_58_flop - timePath_start_0_out1 + timePath_forkC_5_in1 >= 0
  timePath_cst_10_out1 <= 4
  timePath_phi_n2_in1 <= 4
  8 cst_10_phi_n265_flop - timePath_cst_10_out1 + timePath_phi_n2_in1 >= 0
  timePath_forkC_5_out1 <= 4
  timePath_cst_0_in1 <= 4
  8 forkC_5_cst_00_flop + timePath_cst_0_in1 - timePath_forkC_5_out1 >= 0
  timePath_forkC_5_out2 <= 4
  timePath_cst_1_in1 <= 4
  8 forkC_5_cst_12_flop + timePath_cst_1_in1 - timePath_forkC_5_out2 >= 0
  timePath_forkC_5_out4 <= 4
  timePath_cst_10_in1 <= 4
  8 forkC_5_cst_106_flop + timePath_cst_10_in1 - timePath_forkC_5_out4 >= 0
  timePath_forkC_5_out5 <= 4
  timePath_phiC_1_in3 <= 4
  8 forkC_5_phiC_163_flop - timePath_forkC_5_out5 + timePath_phiC_1_in3 >= 0
  timePath_forkC_5_out3 <= 4
  timePath_phiC_3_in3 <= 4
  8 forkC_5_phiC_370_flop - timePath_forkC_5_out3 + timePath_phiC_3_in3 >= 0
  timePath_phi_1_out1 <= 4
  timePath_branch_5_in1 <= 4
  -timePath_phi_1_out1 + timePath_branch_5_in1 >= -8
  timePath_phi_2_out1 <= 4
  timePath_fork_0_in1 <= 4
  -timePath_phi_2_out1 + timePath_fork_0_in1 >= -8
  timePath_cst_2_out1 <= 4
  timePath_shl_3_in2 <= 4
  -timePath_cst_2_out1 + timePath_shl_3_in2 >= -0
  timePath_shl_3_out1 <= 4
  timePath_fork_1_in1 <= 4
  -timePath_shl_3_out1 + timePath_fork_1_in1 >= -0
  timePath_load_6_out1 <= 4
  timePath_fork_9_in1 <= 4
  -timePath_load_6_out1 + timePath_fork_9_in1 >= -0
  timePath_cst_3_out1 <= 4
  timePath_or_7_in2 <= 4
  -timePath_cst_3_out1 + timePath_or_7_in2 >= -0
  timePath_or_7_out1 <= 4
  timePath_load_10_in2 <= 4
  -timePath_or_7_out1 + timePath_load_10_in2 >= -0
  timePath_load_10_out1 <= 4
  timePath_fork_10_in1 <= 4
  -timePath_load_10_out1 + timePath_fork_10_in1 >= -0
  timePath_load_13_out1 <= 4
  timePath_or_17_in1 <= 4
  -timePath_load_13_out1 + timePath_or_17_in1 >= -0
  timePath_load_16_out1 <= 4
  timePath_or_17_in2 <= 4
  -timePath_load_16_out1 + timePath_or_17_in2 >= -0
  timePath_or_17_out1 <= 4
  timePath_icmp_18_in1 <= 4
  -timePath_or_17_out1 + timePath_icmp_18_in1 >= -0
  timePath_cst_4_out1 <= 4
  timePath_icmp_18_in2 <= 4
  -timePath_cst_4_out1 + timePath_icmp_18_in2 >= -0
  timePath_icmp_18_out1 <= 4
  timePath_fork_2_in1 <= 4
  -timePath_icmp_18_out1 + timePath_fork_2_in1 >= -0
  timePath_forkC_0_out1 <= 4
  timePath_buffer_bx_op_0_in1 <= 4
  -timePath_forkC_0_out1 + timePath_buffer_bx_op_0_in1 >= -8
  timePath_buffer_bx_op_0_out1 <= 4
  timePath_branchC_12_in1 <= 4
  -timePath_buffer_bx_op_0_out1 + timePath_branchC_12_in1 >= -0
  timePath_phiC_1_out1 <= 4
  timePath_forkC_0_in1 <= 4
  timePath_forkC_0_in1 - timePath_phiC_1_out1 >= -0
  timePath_phi_n2_out1 <= 4
  timePath_fork_6_in1 <= 4
  -timePath_phi_n2_out1 + timePath_fork_6_in1 >= -0
  timePath_phiC_3_out1 <= 4
  timePath_forkC_7_in1 <= 4
  -timePath_phiC_3_out1 + timePath_forkC_7_in1 >= -8
  timePath_branch_3_out2 <= 4
  timePath_store_0_in2 <= 4
  -timePath_branch_3_out2 + timePath_store_0_in2 >= -0
  timePath_branch_3_out1 <= 4
  timePath_sink_2_in1 <= 4
  8 branch_3_sink_2214_flop - timePath_branch_3_out1 + timePath_sink_2_in1 >= 0
  timePath_branch_4_out2 <= 4
  timePath_store_1_in2 <= 4
  -timePath_branch_4_out2 + timePath_store_1_in2 >= -0
  timePath_branch_4_out1 <= 4
  timePath_sink_3_in1 <= 4
  8 branch_4_sink_3215_flop - timePath_branch_4_out1 + timePath_sink_3_in1 >= 0
  timePath_branch_5_out2 <= 4
  timePath_add_24_in1 <= 4
  -timePath_branch_5_out2 + timePath_add_24_in1 >= -0
  timePath_branch_5_out1 <= 4
  timePath_phi_26_in3 <= 4
  -timePath_branch_5_out1 + timePath_phi_26_in3 >= -0
  timePath_branchC_8_out1 <= 4
  timePath_phiC_0_in3 <= 4
  -timePath_branchC_8_out1 + timePath_phiC_0_in3 >= -0
  timePath_branchC_8_out2 <= 4
  timePath_forkC_8_in1 <= 4
  -timePath_branchC_8_out2 + timePath_forkC_8_in1 >= -0
  timePath_branchC_11_out2 <= 4
  timePath_phiC_3_in2 <= 4
  timePath_phiC_3_in2 - timePath_branchC_11_out2 >= -0
  timePath_branchC_11_out1 <= 4
  timePath_sink_4_in1 <= 4
  8 branchC_11_sink_4216_flop - timePath_branchC_11_out1 + timePath_sink_4_in1 >= 0
  timePath_branchC_12_out2 <= 4
  timePath_forkC_1_in1 <= 4
  -timePath_branchC_12_out2 + timePath_forkC_1_in1 >= -0
  timePath_branchC_12_out1 <= 4
  timePath_sink_5_in1 <= 4
  8 branchC_12_sink_5217_flop - timePath_branchC_12_out1 + timePath_sink_5_in1 >= 0
  timePath_fork_0_out1 <= 4
  timePath_shl_3_in1 <= 4
  timePath_shl_3_in1 - timePath_fork_0_out1 >= -0
  timePath_fork_0_out2 <= 4
  timePath_add_27_in1 <= 4
  -timePath_fork_0_out2 + timePath_add_27_in1 >= -0
  timePath_fork_1_out2 <= 4
  timePath_load_6_in2 <= 4
  timePath_load_6_in2 - timePath_fork_1_out2 >= -0
  timePath_fork_1_out1 <= 4
  timePath_or_7_in1 <= 4
  timePath_or_7_in1 - timePath_fork_1_out1 >= -0
  timePath_fork_2_out2 <= 4
  timePath_branch_3_in2 <= 4
  timePath_branch_3_in2 - timePath_fork_2_out2 >= -0
  timePath_fork_2_out3 <= 4
  timePath_branch_4_in2 <= 4
  timePath_branch_4_in2 - timePath_fork_2_out3 >= -0
  timePath_fork_2_out4 <= 4
  timePath_branch_5_in2 <= 4
  timePath_branch_5_in2 - timePath_fork_2_out4 >= -0
  timePath_fork_2_out5 <= 4
  timePath_branchC_8_in2 <= 4
  timePath_branchC_8_in2 - timePath_fork_2_out5 >= -0
  timePath_fork_2_out6 <= 4
  timePath_branchC_12_in2 <= 4
  timePath_branchC_12_in2 - timePath_fork_2_out6 >= -0
  timePath_fork_2_out1 <= 4
  timePath_phiC_0_in1 <= 4
  -timePath_fork_2_out1 + timePath_phiC_0_in1 >= -0
  timePath_fork_2_out7 <= 4
  timePath_phi_26_in1 <= 4
  -timePath_fork_2_out7 + timePath_phi_26_in1 >= -0
  timePath_fork_6_out2 <= 4
  timePath_phi_1_in1 <= 4
  timePath_phi_1_in1 - timePath_fork_6_out2 >= -0
  timePath_fork_6_out3 <= 4
  timePath_phi_2_in1 <= 4
  timePath_phi_2_in1 - timePath_fork_6_out3 >= -0
  timePath_fork_6_out1 <= 4
  timePath_phiC_1_in1 <= 4
  timePath_phiC_1_in1 - timePath_fork_6_out1 >= -0
  timePath_fork_6_out4 <= 4
  timePath_phiC_3_in1 <= 4
  timePath_phiC_3_in1 - timePath_fork_6_out4 >= -0
  timePath_forkC_7_out1 <= 4
  timePath_cst_2_in1 <= 4
  timePath_cst_2_in1 - timePath_forkC_7_out1 >= -0
  timePath_forkC_7_out3 <= 4
  timePath_cst_3_in1 <= 4
  timePath_cst_3_in1 - timePath_forkC_7_out3 >= -0
  timePath_forkC_7_out4 <= 4
  timePath_cst_4_in1 <= 4
  timePath_cst_4_in1 - timePath_forkC_7_out4 >= -0
  timePath_forkC_7_out5 <= 4
  timePath_branchC_8_in1 <= 4
  timePath_branchC_8_in1 - timePath_forkC_7_out5 >= -0
  timePath_forkC_7_out2 <= 4
  timePath_branchC_11_in1 <= 4
  timePath_branchC_11_in1 - timePath_forkC_7_out2 >= -0
  timePath_forkC_7_out6 <= 4
  timePath_cst_8_in1 <= 4
  -timePath_forkC_7_out6 + timePath_cst_8_in1 >= -0
  timePath_forkC_7_out7 <= 4
  timePath_cst_9_in1 <= 4
  -timePath_forkC_7_out7 + timePath_cst_9_in1 >= -0
  timePath_fork_9_out1 <= 4
  timePath_load_13_in2 <= 4
  timePath_load_13_in2 - timePath_fork_9_out1 >= -0
  timePath_fork_9_out2 <= 4
  timePath_branch_3_in1 <= 4
  timePath_branch_3_in1 - timePath_fork_9_out2 >= -0
  timePath_fork_10_out1 <= 4
  timePath_load_16_in2 <= 4
  timePath_load_16_in2 - timePath_fork_10_out1 >= -0
  timePath_fork_10_out2 <= 4
  timePath_branch_4_in1 <= 4
  timePath_branch_4_in1 - timePath_fork_10_out2 >= -0
  timePath_cst_5_out1 <= 4
  timePath_store_0_in1 <= 4
  -timePath_cst_5_out1 + timePath_store_0_in1 >= -0
  timePath_cst_6_out1 <= 4
  timePath_store_1_in1 <= 4
  -timePath_cst_6_out1 + timePath_store_1_in1 >= -0
  timePath_cst_7_out1 <= 4
  timePath_add_24_in2 <= 4
  -timePath_cst_7_out1 + timePath_add_24_in2 >= -0
  timePath_add_24_out1 <= 4
  timePath_phi_26_in2 <= 4
  -timePath_add_24_out1 + timePath_phi_26_in2 >= -0
  timePath_forkC_1_out1 <= 4
  timePath_buffer_bx_op_1_in1 <= 4
  -timePath_forkC_1_out1 + timePath_buffer_bx_op_1_in1 >= -8
  timePath_buffer_bx_op_1_out1 <= 4
  timePath_phiC_0_in2 <= 4
  -timePath_buffer_bx_op_1_out1 + timePath_phiC_0_in2 >= -0
  timePath_phiC_0_out1 <= 4
  timePath_branchC_0_in1 <= 4
  -timePath_phiC_0_out1 + timePath_branchC_0_in1 >= -0
  timePath_forkC_8_out1 <= 4
  timePath_cst_5_in1 <= 4
  timePath_cst_5_in1 - timePath_forkC_8_out1 >= -0
  timePath_forkC_8_out2 <= 4
  timePath_cst_6_in1 <= 4
  timePath_cst_6_in1 - timePath_forkC_8_out2 >= -0
  timePath_forkC_8_out3 <= 4
  timePath_cst_7_in1 <= 4
  timePath_cst_7_in1 - timePath_forkC_8_out3 >= -0
  timePath_phi_26_out1 <= 4
  timePath_branch_1_in1 <= 4
  -timePath_phi_26_out1 + timePath_branch_1_in1 >= -0
  timePath_cst_8_out1 <= 4
  timePath_add_27_in2 <= 4
  -timePath_cst_8_out1 + timePath_add_27_in2 >= -0
  timePath_add_27_out1 <= 4
  timePath_fork_3_in1 <= 4
  -timePath_add_27_out1 + timePath_fork_3_in1 >= -0
  timePath_cst_9_out1 <= 4
  timePath_icmp_28_in2 <= 4
  -timePath_cst_9_out1 + timePath_icmp_28_in2 >= -0
  timePath_icmp_28_out1 <= 4
  timePath_fork_4_in1 <= 4
  -timePath_icmp_28_out1 + timePath_fork_4_in1 >= -0
  timePath_branchC_0_out2 <= 4
  timePath_phiC_1_in2 <= 4
  timePath_phiC_1_in2 - timePath_branchC_0_out2 >= -0
  timePath_branchC_0_out1 <= 4
  timePath_sink_0_in1 <= 4
  8 branchC_0_sink_0212_flop - timePath_branchC_0_out1 + timePath_sink_0_in1 >= 0
  timePath_branch_1_out2 <= 4
  timePath_phi_1_in2 <= 4
  timePath_phi_1_in2 - timePath_branch_1_out2 >= -0
  timePath_branch_1_out1 <= 4
  timePath_ret_0_in1 <= 4
  8 branch_1_ret_0194_flop - timePath_branch_1_out1 + timePath_ret_0_in1 >= 0
  timePath_branch_2_out2 <= 4
  timePath_phi_2_in2 <= 4
  timePath_phi_2_in2 - timePath_branch_2_out2 >= -0
  timePath_branch_2_out1 <= 4
  timePath_sink_1_in1 <= 4
  8 branch_2_sink_1213_flop - timePath_branch_2_out1 + timePath_sink_1_in1 >= 0
  timePath_fork_3_out1 <= 4
  timePath_icmp_28_in1 <= 4
  timePath_icmp_28_in1 - timePath_fork_3_out1 >= -0
  timePath_fork_3_out2 <= 4
  timePath_branch_2_in1 <= 4
  timePath_branch_2_in1 - timePath_fork_3_out2 >= -0
  timePath_fork_4_out2 <= 4
  timePath_phi_n2_in2 <= 4
  timePath_phi_n2_in2 - timePath_fork_4_out2 >= -0
  timePath_fork_4_out5 <= 4
  timePath_branchC_11_in2 <= 4
  timePath_branchC_11_in2 - timePath_fork_4_out5 >= -0
  timePath_fork_4_out1 <= 4
  timePath_branchC_0_in2 <= 4
  timePath_branchC_0_in2 - timePath_fork_4_out1 >= -8
  timePath_fork_4_out3 <= 4
  timePath_branch_1_in2 <= 4
  timePath_branch_1_in2 - timePath_fork_4_out3 >= -0
  timePath_fork_4_out4 <= 4
  timePath_branch_2_in2 <= 4
  timePath_branch_2_in2 - timePath_fork_4_out4 >= -0
  timePath_ret_0_out1 <= 4
  timePath_end_0_in3 <= 4
  8 ret_0_end_0220_flop - timePath_ret_0_out1 + timePath_end_0_in3 >= 0
  -timePath_cst_0_in1 + timePath_cst_0_out1 >= 0
  -timePath_cst_1_in1 + timePath_cst_1_out1 >= 0
  -timePath_cst_10_in1 + timePath_cst_10_out1 >= 0
  -timePath_forkC_5_in1 + timePath_forkC_5_out1 >= 0
  -timePath_forkC_5_in1 + timePath_forkC_5_out2 >= 0
  -timePath_forkC_5_in1 + timePath_forkC_5_out3 >= 0
  -timePath_forkC_5_in1 + timePath_forkC_5_out4 >= 0
  -timePath_forkC_5_in1 + timePath_forkC_5_out5 >= 0
  -timePath_phi_1_in1 + timePath_phi_1_out1 >= 0.366
  -timePath_phi_1_in2 + timePath_phi_1_out1 >= 0.366
  -timePath_phi_1_in3 + timePath_phi_1_out1 >= 0.366
  -timePath_phi_2_in1 + timePath_phi_2_out1 >= 0.366
  -timePath_phi_2_in2 + timePath_phi_2_out1 >= 0.366
  -timePath_phi_2_in3 + timePath_phi_2_out1 >= 0.366
  -timePath_cst_2_in1 + timePath_cst_2_out1 >= 0
  -timePath_shl_3_in1 + timePath_shl_3_out1 >= 0
  -timePath_shl_3_in2 + timePath_shl_3_out1 >= 0
  timePath_load_6_out1 = 0
  timePath_load_6_out2 = 0
  timePath_load_6_in1 <= 4
  timePath_load_6_in2 <= 4
  -timePath_cst_3_in1 + timePath_cst_3_out1 >= 0
  -timePath_or_7_in1 + timePath_or_7_out1 >= 0
  -timePath_or_7_in2 + timePath_or_7_out1 >= 0
  timePath_load_10_out1 = 0
  timePath_load_10_out2 = 0
  timePath_load_10_in1 <= 4
  timePath_load_10_in2 <= 4
  timePath_load_13_out1 = 0
  timePath_load_13_out2 = 0
  timePath_load_13_in1 <= 4
  timePath_load_13_in2 <= 4
  timePath_load_16_out1 = 0
  timePath_load_16_out2 = 0
  timePath_load_16_in1 <= 4
  timePath_load_16_in2 <= 4
  -timePath_or_17_in1 + timePath_or_17_out1 >= 0
  -timePath_or_17_in2 + timePath_or_17_out1 >= 0
  -timePath_cst_4_in1 + timePath_cst_4_out1 >= 0
  -timePath_icmp_18_in1 + timePath_icmp_18_out1 >= 1.53
  -timePath_icmp_18_in2 + timePath_icmp_18_out1 >= 1.53
  -timePath_forkC_0_in1 + timePath_forkC_0_out1 >= 0
  -timePath_forkC_0_in1 + timePath_forkC_0_out2 >= 0
  timePath_buffer_bx_op_0_out1 = 0
  timePath_buffer_bx_op_0_in1 <= 4
  -timePath_phiC_1_in1 + timePath_phiC_1_out1 >= 0.166
  -timePath_phiC_1_in2 + timePath_phiC_1_out1 >= 0.166
  -timePath_phiC_1_in3 + timePath_phiC_1_out1 >= 0.166
  -timePath_phi_n2_in1 + timePath_phi_n2_out1 >= 0.366
  -timePath_phi_n2_in2 + timePath_phi_n2_out1 >= 0.366
  -timePath_phiC_3_in1 + timePath_phiC_3_out1 >= 0.166
  -timePath_phiC_3_in2 + timePath_phiC_3_out1 >= 0.166
  -timePath_phiC_3_in3 + timePath_phiC_3_out1 >= 0.166
  -timePath_branch_3_in1 + timePath_branch_3_out1 >= 0
  -timePath_branch_3_in2 + timePath_branch_3_out1 >= 0
  -timePath_branch_3_in1 + timePath_branch_3_out2 >= 0
  -timePath_branch_3_in2 + timePath_branch_3_out2 >= 0
  -timePath_branch_4_in1 + timePath_branch_4_out1 >= 0
  -timePath_branch_4_in2 + timePath_branch_4_out1 >= 0
  -timePath_branch_4_in1 + timePath_branch_4_out2 >= 0
  -timePath_branch_4_in2 + timePath_branch_4_out2 >= 0
  -timePath_branch_5_in1 + timePath_branch_5_out1 >= 0
  -timePath_branch_5_in2 + timePath_branch_5_out1 >= 0
  -timePath_branch_5_in1 + timePath_branch_5_out2 >= 0
  -timePath_branch_5_in2 + timePath_branch_5_out2 >= 0
  -timePath_branchC_8_in1 + timePath_branchC_8_out1 >= 0
  -timePath_branchC_8_in2 + timePath_branchC_8_out1 >= 0
  -timePath_branchC_8_in1 + timePath_branchC_8_out2 >= 0
  -timePath_branchC_8_in2 + timePath_branchC_8_out2 >= 0
  -timePath_branchC_11_in1 + timePath_branchC_11_out1 >= 0
  -timePath_branchC_11_in2 + timePath_branchC_11_out1 >= 0
  -timePath_branchC_11_in1 + timePath_branchC_11_out2 >= 0
  -timePath_branchC_11_in2 + timePath_branchC_11_out2 >= 0
  -timePath_branchC_12_in1 + timePath_branchC_12_out1 >= 0
  -timePath_branchC_12_in2 + timePath_branchC_12_out1 >= 0
  -timePath_branchC_12_in1 + timePath_branchC_12_out2 >= 0
  -timePath_branchC_12_in2 + timePath_branchC_12_out2 >= 0
  -timePath_fork_0_in1 + timePath_fork_0_out1 >= 0
  -timePath_fork_0_in1 + timePath_fork_0_out2 >= 0
  -timePath_fork_1_in1 + timePath_fork_1_out1 >= 0
  -timePath_fork_1_in1 + timePath_fork_1_out2 >= 0
  -timePath_fork_2_in1 + timePath_fork_2_out1 >= 0
  -timePath_fork_2_in1 + timePath_fork_2_out2 >= 0
  -timePath_fork_2_in1 + timePath_fork_2_out3 >= 0
  -timePath_fork_2_in1 + timePath_fork_2_out4 >= 0
  -timePath_fork_2_in1 + timePath_fork_2_out5 >= 0
  -timePath_fork_2_in1 + timePath_fork_2_out6 >= 0
  -timePath_fork_2_in1 + timePath_fork_2_out7 >= 0
  -timePath_fork_6_in1 + timePath_fork_6_out1 >= 0
  -timePath_fork_6_in1 + timePath_fork_6_out2 >= 0
  -timePath_fork_6_in1 + timePath_fork_6_out3 >= 0
  -timePath_fork_6_in1 + timePath_fork_6_out4 >= 0
  -timePath_forkC_7_in1 + timePath_forkC_7_out1 >= 0
  -timePath_forkC_7_in1 + timePath_forkC_7_out2 >= 0
  -timePath_forkC_7_in1 + timePath_forkC_7_out3 >= 0
  -timePath_forkC_7_in1 + timePath_forkC_7_out4 >= 0
  -timePath_forkC_7_in1 + timePath_forkC_7_out5 >= 0
  -timePath_forkC_7_in1 + timePath_forkC_7_out6 >= 0
  -timePath_forkC_7_in1 + timePath_forkC_7_out7 >= 0
  -timePath_fork_9_in1 + timePath_fork_9_out1 >= 0
  -timePath_fork_9_in1 + timePath_fork_9_out2 >= 0
  -timePath_fork_10_in1 + timePath_fork_10_out1 >= 0
  -timePath_fork_10_in1 + timePath_fork_10_out2 >= 0
  -timePath_cst_5_in1 + timePath_cst_5_out1 >= 0
  -timePath_store_0_in1 + timePath_store_0_out1 >= 0
  -timePath_store_0_in2 + timePath_store_0_out1 >= 0
  -timePath_store_0_in1 + timePath_store_0_out2 >= 0
  -timePath_store_0_in2 + timePath_store_0_out2 >= 0
  -timePath_cst_6_in1 + timePath_cst_6_out1 >= 0
  -timePath_store_1_in1 + timePath_store_1_out1 >= 0
  -timePath_store_1_in2 + timePath_store_1_out1 >= 0
  -timePath_store_1_in1 + timePath_store_1_out2 >= 0
  -timePath_store_1_in2 + timePath_store_1_out2 >= 0
  -timePath_cst_7_in1 + timePath_cst_7_out1 >= 0
  -timePath_add_24_in1 + timePath_add_24_out1 >= 1.693
  -timePath_add_24_in2 + timePath_add_24_out1 >= 1.693
  -timePath_forkC_1_in1 + timePath_forkC_1_out1 >= 0
  -timePath_forkC_1_in1 + timePath_forkC_1_out2 >= 0
  timePath_buffer_bx_op_1_out1 = 0
  timePath_buffer_bx_op_1_in1 <= 4
  -timePath_phiC_0_in1 + timePath_phiC_0_out1 >= 0.166
  -timePath_phiC_0_in2 + timePath_phiC_0_out1 >= 0.166
  -timePath_phiC_0_in3 + timePath_phiC_0_out1 >= 0.166
  -timePath_forkC_8_in1 + timePath_forkC_8_out1 >= 0
  -timePath_forkC_8_in1 + timePath_forkC_8_out2 >= 0
  -timePath_forkC_8_in1 + timePath_forkC_8_out3 >= 0
  -timePath_phi_26_in1 + timePath_phi_26_out1 >= 0.366
  -timePath_phi_26_in2 + timePath_phi_26_out1 >= 0.366
  -timePath_phi_26_in3 + timePath_phi_26_out1 >= 0.366
  -timePath_cst_8_in1 + timePath_cst_8_out1 >= 0
  -timePath_add_27_in1 + timePath_add_27_out1 >= 1.693
  -timePath_add_27_in2 + timePath_add_27_out1 >= 1.693
  -timePath_cst_9_in1 + timePath_cst_9_out1 >= 0
  -timePath_icmp_28_in1 + timePath_icmp_28_out1 >= 1.53
  -timePath_icmp_28_in2 + timePath_icmp_28_out1 >= 1.53
  -timePath_branchC_0_in1 + timePath_branchC_0_out1 >= 0
  -timePath_branchC_0_in2 + timePath_branchC_0_out1 >= 0
  -timePath_branchC_0_in1 + timePath_branchC_0_out2 >= 0
  -timePath_branchC_0_in2 + timePath_branchC_0_out2 >= 0
  -timePath_branch_1_in1 + timePath_branch_1_out1 >= 0
  -timePath_branch_1_in2 + timePath_branch_1_out1 >= 0
  -timePath_branch_1_in1 + timePath_branch_1_out2 >= 0
  -timePath_branch_1_in2 + timePath_branch_1_out2 >= 0
  -timePath_branch_2_in1 + timePath_branch_2_out1 >= 0
  -timePath_branch_2_in2 + timePath_branch_2_out1 >= 0
  -timePath_branch_2_in1 + timePath_branch_2_out2 >= 0
  -timePath_branch_2_in2 + timePath_branch_2_out2 >= 0
  -timePath_fork_3_in1 + timePath_fork_3_out1 >= 0
  -timePath_fork_3_in1 + timePath_fork_3_out2 >= 0
  -timePath_fork_4_in1 + timePath_fork_4_out1 >= 0
  -timePath_fork_4_in1 + timePath_fork_4_out2 >= 0
  -timePath_fork_4_in1 + timePath_fork_4_out3 >= 0
  -timePath_fork_4_in1 + timePath_fork_4_out4 >= 0
  -timePath_fork_4_in1 + timePath_fork_4_out5 >= 0
  -timePath_ret_0_in1 + timePath_ret_0_out1 >= 0
  -timePath_LSQ_vertices_in1 + timePath_LSQ_vertices_out1 >= 0
  -timePath_LSQ_vertices_in2 + timePath_LSQ_vertices_out1 >= 0
  -timePath_LSQ_vertices_in3 + timePath_LSQ_vertices_out1 >= 0
  -timePath_LSQ_vertices_in4 + timePath_LSQ_vertices_out1 >= 0
  -timePath_LSQ_vertices_in5 + timePath_LSQ_vertices_out1 >= 0
  -timePath_LSQ_vertices_in6 + timePath_LSQ_vertices_out1 >= 0
  -timePath_LSQ_vertices_in7 + timePath_LSQ_vertices_out1 >= 0
  -timePath_LSQ_vertices_in8 + timePath_LSQ_vertices_out1 >= 0
  -timePath_LSQ_vertices_in1 + timePath_LSQ_vertices_out2 >= 0
  -timePath_LSQ_vertices_in2 + timePath_LSQ_vertices_out2 >= 0
  -timePath_LSQ_vertices_in3 + timePath_LSQ_vertices_out2 >= 0
  -timePath_LSQ_vertices_in4 + timePath_LSQ_vertices_out2 >= 0
  -timePath_LSQ_vertices_in5 + timePath_LSQ_vertices_out2 >= 0
  -timePath_LSQ_vertices_in6 + timePath_LSQ_vertices_out2 >= 0
  -timePath_LSQ_vertices_in7 + timePath_LSQ_vertices_out2 >= 0
  -timePath_LSQ_vertices_in8 + timePath_LSQ_vertices_out2 >= 0
  -timePath_LSQ_vertices_in1 + timePath_LSQ_vertices_out3 >= 0
  -timePath_LSQ_vertices_in2 + timePath_LSQ_vertices_out3 >= 0
  -timePath_LSQ_vertices_in3 + timePath_LSQ_vertices_out3 >= 0
  -timePath_LSQ_vertices_in4 + timePath_LSQ_vertices_out3 >= 0
  -timePath_LSQ_vertices_in5 + timePath_LSQ_vertices_out3 >= 0
  -timePath_LSQ_vertices_in6 + timePath_LSQ_vertices_out3 >= 0
  -timePath_LSQ_vertices_in7 + timePath_LSQ_vertices_out3 >= 0
  -timePath_LSQ_vertices_in8 + timePath_LSQ_vertices_out3 >= 0
  -timePath_MC_edges_in1 + timePath_MC_edges_out1 >= 0
  -timePath_MC_edges_in2 + timePath_MC_edges_out1 >= 0
  -timePath_MC_edges_in1 + timePath_MC_edges_out2 >= 0
  -timePath_MC_edges_in2 + timePath_MC_edges_out2 >= 0
  -timePath_MC_edges_in1 + timePath_MC_edges_out3 >= 0
  -timePath_MC_edges_in2 + timePath_MC_edges_out3 >= 0
  67 cst_0_phi_116_flop - timeElastic_cst_0_out1 + timeElastic_phi_1_in3 >= 0
  67 cst_1_phi_220_flop - timeElastic_cst_1_out1 + timeElastic_phi_2_in3 >= 0
  67 start_0_forkC_58_flop - timeElastic_start_0_out1 + timeElastic_forkC_5_in1 >= 0
  67 cst_10_phi_n265_flop - timeElastic_cst_10_out1 + timeElastic_phi_n2_in1 >= 0
  67 forkC_5_cst_00_flop + timeElastic_cst_0_in1 - timeElastic_forkC_5_out1 >= 0
  67 forkC_5_cst_12_flop + timeElastic_cst_1_in1 - timeElastic_forkC_5_out2 >= 0
  67 forkC_5_cst_106_flop + timeElastic_cst_10_in1 - timeElastic_forkC_5_out4 >= 0
  67 forkC_5_phiC_163_flop - timeElastic_forkC_5_out5 + timeElastic_phiC_1_in3 >= 0
  67 forkC_5_phiC_370_flop - timeElastic_forkC_5_out3 + timeElastic_phiC_3_in3 >= 0
  -timeElastic_phi_1_out1 + timeElastic_branch_5_in1 >= -67
  -timeElastic_phi_2_out1 + timeElastic_fork_0_in1 >= -67
  -timeElastic_cst_2_out1 + timeElastic_shl_3_in2 >= -0
  -timeElastic_shl_3_out1 + timeElastic_fork_1_in1 >= -0
  -timeElastic_load_6_out1 + timeElastic_fork_9_in1 >= -0
  -timeElastic_cst_3_out1 + timeElastic_or_7_in2 >= -0
  -timeElastic_or_7_out1 + timeElastic_load_10_in2 >= -0
  -timeElastic_load_10_out1 + timeElastic_fork_10_in1 >= -0
  -timeElastic_load_13_out1 + timeElastic_or_17_in1 >= -0
  -timeElastic_load_16_out1 + timeElastic_or_17_in2 >= -0
  -timeElastic_or_17_out1 + timeElastic_icmp_18_in1 >= -0
  -timeElastic_cst_4_out1 + timeElastic_icmp_18_in2 >= -0
  -timeElastic_icmp_18_out1 + timeElastic_fork_2_in1 >= -0
  -timeElastic_forkC_0_out1 + timeElastic_buffer_bx_op_0_in1 >= -67
  -timeElastic_buffer_bx_op_0_out1 + timeElastic_branchC_12_in1 >= -0
  timeElastic_forkC_0_in1 - timeElastic_phiC_1_out1 >= -0
  -timeElastic_phi_n2_out1 + timeElastic_fork_6_in1 >= -0
  -timeElastic_phiC_3_out1 + timeElastic_forkC_7_in1 >= -67
  -timeElastic_branch_3_out2 + timeElastic_store_0_in2 >= -0
  67 branch_3_sink_2214_flop - timeElastic_branch_3_out1 + timeElastic_sink_2_in1 >= 0
  -timeElastic_branch_4_out2 + timeElastic_store_1_in2 >= -0
  67 branch_4_sink_3215_flop - timeElastic_branch_4_out1 + timeElastic_sink_3_in1 >= 0
  -timeElastic_branch_5_out2 + timeElastic_add_24_in1 >= -0
  -timeElastic_branch_5_out1 + timeElastic_phi_26_in3 >= -0
  -timeElastic_branchC_8_out1 + timeElastic_phiC_0_in3 >= -0
  -timeElastic_branchC_8_out2 + timeElastic_forkC_8_in1 >= -0
  timeElastic_phiC_3_in2 - timeElastic_branchC_11_out2 >= -0
  67 branchC_11_sink_4216_flop - timeElastic_branchC_11_out1 + timeElastic_sink_4_in1 >= 0
  -timeElastic_branchC_12_out2 + timeElastic_forkC_1_in1 >= -0
  67 branchC_12_sink_5217_flop - timeElastic_branchC_12_out1 + timeElastic_sink_5_in1 >= 0
  timeElastic_shl_3_in1 - timeElastic_fork_0_out1 >= -0
  -timeElastic_fork_0_out2 + timeElastic_add_27_in1 >= -0
  timeElastic_load_6_in2 - timeElastic_fork_1_out2 >= -0
  timeElastic_or_7_in1 - timeElastic_fork_1_out1 >= -0
  timeElastic_branch_3_in2 - timeElastic_fork_2_out2 >= -0
  timeElastic_branch_4_in2 - timeElastic_fork_2_out3 >= -0
  timeElastic_branch_5_in2 - timeElastic_fork_2_out4 >= -0
  timeElastic_branchC_8_in2 - timeElastic_fork_2_out5 >= -0
  timeElastic_branchC_12_in2 - timeElastic_fork_2_out6 >= -0
  -timeElastic_fork_2_out1 + timeElastic_phiC_0_in1 >= -0
  -timeElastic_fork_2_out7 + timeElastic_phi_26_in1 >= -0
  timeElastic_phi_1_in1 - timeElastic_fork_6_out2 >= -0
  timeElastic_phi_2_in1 - timeElastic_fork_6_out3 >= -0
  timeElastic_phiC_1_in1 - timeElastic_fork_6_out1 >= -0
  timeElastic_phiC_3_in1 - timeElastic_fork_6_out4 >= -0
  timeElastic_cst_2_in1 - timeElastic_forkC_7_out1 >= -0
  timeElastic_cst_3_in1 - timeElastic_forkC_7_out3 >= -0
  timeElastic_cst_4_in1 - timeElastic_forkC_7_out4 >= -0
  timeElastic_branchC_8_in1 - timeElastic_forkC_7_out5 >= -0
  timeElastic_branchC_11_in1 - timeElastic_forkC_7_out2 >= -0
  -timeElastic_forkC_7_out6 + timeElastic_cst_8_in1 >= -0
  -timeElastic_forkC_7_out7 + timeElastic_cst_9_in1 >= -0
  timeElastic_load_13_in2 - timeElastic_fork_9_out1 >= -0
  timeElastic_branch_3_in1 - timeElastic_fork_9_out2 >= -0
  timeElastic_load_16_in2 - timeElastic_fork_10_out1 >= -0
  timeElastic_branch_4_in1 - timeElastic_fork_10_out2 >= -0
  -timeElastic_cst_5_out1 + timeElastic_store_0_in1 >= -0
  -timeElastic_cst_6_out1 + timeElastic_store_1_in1 >= -0
  -timeElastic_cst_7_out1 + timeElastic_add_24_in2 >= -0
  -timeElastic_add_24_out1 + timeElastic_phi_26_in2 >= -0
  -timeElastic_forkC_1_out1 + timeElastic_buffer_bx_op_1_in1 >= -67
  -timeElastic_buffer_bx_op_1_out1 + timeElastic_phiC_0_in2 >= -0
  -timeElastic_phiC_0_out1 + timeElastic_branchC_0_in1 >= -0
  timeElastic_cst_5_in1 - timeElastic_forkC_8_out1 >= -0
  timeElastic_cst_6_in1 - timeElastic_forkC_8_out2 >= -0
  timeElastic_cst_7_in1 - timeElastic_forkC_8_out3 >= -0
  -timeElastic_phi_26_out1 + timeElastic_branch_1_in1 >= -0
  -timeElastic_cst_8_out1 + timeElastic_add_27_in2 >= -0
  -timeElastic_add_27_out1 + timeElastic_fork_3_in1 >= -0
  -timeElastic_cst_9_out1 + timeElastic_icmp_28_in2 >= -0
  -timeElastic_icmp_28_out1 + timeElastic_fork_4_in1 >= -0
  timeElastic_phiC_1_in2 - timeElastic_branchC_0_out2 >= -0
  67 branchC_0_sink_0212_flop - timeElastic_branchC_0_out1 + timeElastic_sink_0_in1 >= 0
  timeElastic_phi_1_in2 - timeElastic_branch_1_out2 >= -0
  67 branch_1_ret_0194_flop - timeElastic_branch_1_out1 + timeElastic_ret_0_in1 >= 0
  timeElastic_phi_2_in2 - timeElastic_branch_2_out2 >= -0
  67 branch_2_sink_1213_flop - timeElastic_branch_2_out1 + timeElastic_sink_1_in1 >= 0
  timeElastic_icmp_28_in1 - timeElastic_fork_3_out1 >= -0
  timeElastic_branch_2_in1 - timeElastic_fork_3_out2 >= -0
  timeElastic_phi_n2_in2 - timeElastic_fork_4_out2 >= -0
  timeElastic_branchC_11_in2 - timeElastic_fork_4_out5 >= -0
  timeElastic_branchC_0_in2 - timeElastic_fork_4_out1 >= -67
  timeElastic_branch_1_in2 - timeElastic_fork_4_out3 >= -0
  timeElastic_branch_2_in2 - timeElastic_fork_4_out4 >= -0
  67 ret_0_end_0220_flop - timeElastic_ret_0_out1 + timeElastic_end_0_in3 >= 0
  -timeElastic_cst_0_in1 + timeElastic_cst_0_out1 >= 1
  -timeElastic_cst_1_in1 + timeElastic_cst_1_out1 >= 1
  -timeElastic_cst_10_in1 + timeElastic_cst_10_out1 >= 1
  -timeElastic_forkC_5_in1 + timeElastic_forkC_5_out1 >= 1
  -timeElastic_forkC_5_in1 + timeElastic_forkC_5_out2 >= 1
  -timeElastic_forkC_5_in1 + timeElastic_forkC_5_out3 >= 1
  -timeElastic_forkC_5_in1 + timeElastic_forkC_5_out4 >= 1
  -timeElastic_forkC_5_in1 + timeElastic_forkC_5_out5 >= 1
  -timeElastic_phi_1_in1 + timeElastic_phi_1_out1 >= 1
  -timeElastic_phi_1_in2 + timeElastic_phi_1_out1 >= 1
  -timeElastic_phi_1_in3 + timeElastic_phi_1_out1 >= 1
  -timeElastic_phi_2_in1 + timeElastic_phi_2_out1 >= 1
  -timeElastic_phi_2_in2 + timeElastic_phi_2_out1 >= 1
  -timeElastic_phi_2_in3 + timeElastic_phi_2_out1 >= 1
  -timeElastic_cst_2_in1 + timeElastic_cst_2_out1 >= 1
  -timeElastic_shl_3_in1 + timeElastic_shl_3_out1 >= 1
  -timeElastic_shl_3_in2 + timeElastic_shl_3_out1 >= 1
  -timeElastic_load_6_in1 + timeElastic_load_6_out1 >= 1
  -timeElastic_load_6_in2 + timeElastic_load_6_out1 >= 1
  -timeElastic_load_6_in1 + timeElastic_load_6_out2 >= 1
  -timeElastic_load_6_in2 + timeElastic_load_6_out2 >= 1
  -timeElastic_cst_3_in1 + timeElastic_cst_3_out1 >= 1
  -timeElastic_or_7_in1 + timeElastic_or_7_out1 >= 1
  -timeElastic_or_7_in2 + timeElastic_or_7_out1 >= 1
  -timeElastic_load_10_in1 + timeElastic_load_10_out1 >= 1
  -timeElastic_load_10_in2 + timeElastic_load_10_out1 >= 1
  -timeElastic_load_10_in1 + timeElastic_load_10_out2 >= 1
  -timeElastic_load_10_in2 + timeElastic_load_10_out2 >= 1
  -timeElastic_load_13_in1 + timeElastic_load_13_out1 >= 1
  -timeElastic_load_13_in2 + timeElastic_load_13_out1 >= 1
  -timeElastic_load_13_in1 + timeElastic_load_13_out2 >= 1
  -timeElastic_load_13_in2 + timeElastic_load_13_out2 >= 1
  -timeElastic_load_16_in1 + timeElastic_load_16_out1 >= 1
  -timeElastic_load_16_in2 + timeElastic_load_16_out1 >= 1
  -timeElastic_load_16_in1 + timeElastic_load_16_out2 >= 1
  -timeElastic_load_16_in2 + timeElastic_load_16_out2 >= 1
  -timeElastic_or_17_in1 + timeElastic_or_17_out1 >= 1
  -timeElastic_or_17_in2 + timeElastic_or_17_out1 >= 1
  -timeElastic_cst_4_in1 + timeElastic_cst_4_out1 >= 1
  -timeElastic_icmp_18_in1 + timeElastic_icmp_18_out1 >= 1
  -timeElastic_icmp_18_in2 + timeElastic_icmp_18_out1 >= 1
  -timeElastic_forkC_0_in1 + timeElastic_forkC_0_out1 >= 1
  -timeElastic_forkC_0_in1 + timeElastic_forkC_0_out2 >= 1
  -timeElastic_buffer_bx_op_0_in1 + timeElastic_buffer_bx_op_0_out1 >= 1
  -timeElastic_phiC_1_in1 + timeElastic_phiC_1_out1 >= 1
  -timeElastic_phiC_1_in2 + timeElastic_phiC_1_out1 >= 1
  -timeElastic_phiC_1_in3 + timeElastic_phiC_1_out1 >= 1
  -timeElastic_phi_n2_in1 + timeElastic_phi_n2_out1 >= 1
  -timeElastic_phi_n2_in2 + timeElastic_phi_n2_out1 >= 1
  -timeElastic_phiC_3_in1 + timeElastic_phiC_3_out1 >= 1
  -timeElastic_phiC_3_in2 + timeElastic_phiC_3_out1 >= 1
  -timeElastic_phiC_3_in3 + timeElastic_phiC_3_out1 >= 1
  -timeElastic_branch_3_in1 + timeElastic_branch_3_out1 >= 1
  -timeElastic_branch_3_in2 + timeElastic_branch_3_out1 >= 1
  -timeElastic_branch_3_in1 + timeElastic_branch_3_out2 >= 1
  -timeElastic_branch_3_in2 + timeElastic_branch_3_out2 >= 1
  -timeElastic_branch_4_in1 + timeElastic_branch_4_out1 >= 1
  -timeElastic_branch_4_in2 + timeElastic_branch_4_out1 >= 1
  -timeElastic_branch_4_in1 + timeElastic_branch_4_out2 >= 1
  -timeElastic_branch_4_in2 + timeElastic_branch_4_out2 >= 1
  -timeElastic_branch_5_in1 + timeElastic_branch_5_out1 >= 1
  -timeElastic_branch_5_in2 + timeElastic_branch_5_out1 >= 1
  -timeElastic_branch_5_in1 + timeElastic_branch_5_out2 >= 1
  -timeElastic_branch_5_in2 + timeElastic_branch_5_out2 >= 1
  -timeElastic_branchC_8_in1 + timeElastic_branchC_8_out1 >= 1
  -timeElastic_branchC_8_in2 + timeElastic_branchC_8_out1 >= 1
  -timeElastic_branchC_8_in1 + timeElastic_branchC_8_out2 >= 1
  -timeElastic_branchC_8_in2 + timeElastic_branchC_8_out2 >= 1
  -timeElastic_branchC_11_in1 + timeElastic_branchC_11_out1 >= 1
  -timeElastic_branchC_11_in2 + timeElastic_branchC_11_out1 >= 1
  -timeElastic_branchC_11_in1 + timeElastic_branchC_11_out2 >= 1
  -timeElastic_branchC_11_in2 + timeElastic_branchC_11_out2 >= 1
  -timeElastic_branchC_12_in1 + timeElastic_branchC_12_out1 >= 1
  -timeElastic_branchC_12_in2 + timeElastic_branchC_12_out1 >= 1
  -timeElastic_branchC_12_in1 + timeElastic_branchC_12_out2 >= 1
  -timeElastic_branchC_12_in2 + timeElastic_branchC_12_out2 >= 1
  -timeElastic_fork_0_in1 + timeElastic_fork_0_out1 >= 1
  -timeElastic_fork_0_in1 + timeElastic_fork_0_out2 >= 1
  -timeElastic_fork_1_in1 + timeElastic_fork_1_out1 >= 1
  -timeElastic_fork_1_in1 + timeElastic_fork_1_out2 >= 1
  -timeElastic_fork_2_in1 + timeElastic_fork_2_out1 >= 1
  -timeElastic_fork_2_in1 + timeElastic_fork_2_out2 >= 1
  -timeElastic_fork_2_in1 + timeElastic_fork_2_out3 >= 1
  -timeElastic_fork_2_in1 + timeElastic_fork_2_out4 >= 1
  -timeElastic_fork_2_in1 + timeElastic_fork_2_out5 >= 1
  -timeElastic_fork_2_in1 + timeElastic_fork_2_out6 >= 1
  -timeElastic_fork_2_in1 + timeElastic_fork_2_out7 >= 1
  -timeElastic_fork_6_in1 + timeElastic_fork_6_out1 >= 1
  -timeElastic_fork_6_in1 + timeElastic_fork_6_out2 >= 1
  -timeElastic_fork_6_in1 + timeElastic_fork_6_out3 >= 1
  -timeElastic_fork_6_in1 + timeElastic_fork_6_out4 >= 1
  -timeElastic_forkC_7_in1 + timeElastic_forkC_7_out1 >= 1
  -timeElastic_forkC_7_in1 + timeElastic_forkC_7_out2 >= 1
  -timeElastic_forkC_7_in1 + timeElastic_forkC_7_out3 >= 1
  -timeElastic_forkC_7_in1 + timeElastic_forkC_7_out4 >= 1
  -timeElastic_forkC_7_in1 + timeElastic_forkC_7_out5 >= 1
  -timeElastic_forkC_7_in1 + timeElastic_forkC_7_out6 >= 1
  -timeElastic_forkC_7_in1 + timeElastic_forkC_7_out7 >= 1
  -timeElastic_fork_9_in1 + timeElastic_fork_9_out1 >= 1
  -timeElastic_fork_9_in1 + timeElastic_fork_9_out2 >= 1
  -timeElastic_fork_10_in1 + timeElastic_fork_10_out1 >= 1
  -timeElastic_fork_10_in1 + timeElastic_fork_10_out2 >= 1
  -timeElastic_cst_5_in1 + timeElastic_cst_5_out1 >= 1
  -timeElastic_store_0_in1 + timeElastic_store_0_out1 >= 1
  -timeElastic_store_0_in2 + timeElastic_store_0_out1 >= 1
  -timeElastic_store_0_in1 + timeElastic_store_0_out2 >= 1
  -timeElastic_store_0_in2 + timeElastic_store_0_out2 >= 1
  -timeElastic_cst_6_in1 + timeElastic_cst_6_out1 >= 1
  -timeElastic_store_1_in1 + timeElastic_store_1_out1 >= 1
  -timeElastic_store_1_in2 + timeElastic_store_1_out1 >= 1
  -timeElastic_store_1_in1 + timeElastic_store_1_out2 >= 1
  -timeElastic_store_1_in2 + timeElastic_store_1_out2 >= 1
  -timeElastic_cst_7_in1 + timeElastic_cst_7_out1 >= 1
  -timeElastic_add_24_in1 + timeElastic_add_24_out1 >= 1
  -timeElastic_add_24_in2 + timeElastic_add_24_out1 >= 1
  -timeElastic_forkC_1_in1 + timeElastic_forkC_1_out1 >= 1
  -timeElastic_forkC_1_in1 + timeElastic_forkC_1_out2 >= 1
  -timeElastic_buffer_bx_op_1_in1 + timeElastic_buffer_bx_op_1_out1 >= 1
  -timeElastic_phiC_0_in1 + timeElastic_phiC_0_out1 >= 1
  -timeElastic_phiC_0_in2 + timeElastic_phiC_0_out1 >= 1
  -timeElastic_phiC_0_in3 + timeElastic_phiC_0_out1 >= 1
  -timeElastic_forkC_8_in1 + timeElastic_forkC_8_out1 >= 1
  -timeElastic_forkC_8_in1 + timeElastic_forkC_8_out2 >= 1
  -timeElastic_forkC_8_in1 + timeElastic_forkC_8_out3 >= 1
  -timeElastic_phi_26_in1 + timeElastic_phi_26_out1 >= 1
  -timeElastic_phi_26_in2 + timeElastic_phi_26_out1 >= 1
  -timeElastic_phi_26_in3 + timeElastic_phi_26_out1 >= 1
  -timeElastic_cst_8_in1 + timeElastic_cst_8_out1 >= 1
  -timeElastic_add_27_in1 + timeElastic_add_27_out1 >= 1
  -timeElastic_add_27_in2 + timeElastic_add_27_out1 >= 1
  -timeElastic_cst_9_in1 + timeElastic_cst_9_out1 >= 1
  -timeElastic_icmp_28_in1 + timeElastic_icmp_28_out1 >= 1
  -timeElastic_icmp_28_in2 + timeElastic_icmp_28_out1 >= 1
  -timeElastic_branchC_0_in1 + timeElastic_branchC_0_out1 >= 1
  -timeElastic_branchC_0_in2 + timeElastic_branchC_0_out1 >= 1
  -timeElastic_branchC_0_in1 + timeElastic_branchC_0_out2 >= 1
  -timeElastic_branchC_0_in2 + timeElastic_branchC_0_out2 >= 1
  -timeElastic_branch_1_in1 + timeElastic_branch_1_out1 >= 1
  -timeElastic_branch_1_in2 + timeElastic_branch_1_out1 >= 1
  -timeElastic_branch_1_in1 + timeElastic_branch_1_out2 >= 1
  -timeElastic_branch_1_in2 + timeElastic_branch_1_out2 >= 1
  -timeElastic_branch_2_in1 + timeElastic_branch_2_out1 >= 1
  -timeElastic_branch_2_in2 + timeElastic_branch_2_out1 >= 1
  -timeElastic_branch_2_in1 + timeElastic_branch_2_out2 >= 1
  -timeElastic_branch_2_in2 + timeElastic_branch_2_out2 >= 1
  -timeElastic_fork_3_in1 + timeElastic_fork_3_out1 >= 1
  -timeElastic_fork_3_in1 + timeElastic_fork_3_out2 >= 1
  -timeElastic_fork_4_in1 + timeElastic_fork_4_out1 >= 1
  -timeElastic_fork_4_in1 + timeElastic_fork_4_out2 >= 1
  -timeElastic_fork_4_in1 + timeElastic_fork_4_out3 >= 1
  -timeElastic_fork_4_in1 + timeElastic_fork_4_out4 >= 1
  -timeElastic_fork_4_in1 + timeElastic_fork_4_out5 >= 1
  -timeElastic_ret_0_in1 + timeElastic_ret_0_out1 >= 1
  -timeElastic_LSQ_vertices_in1 + timeElastic_LSQ_vertices_out1 >= 1
  -timeElastic_LSQ_vertices_in2 + timeElastic_LSQ_vertices_out1 >= 1
  -timeElastic_LSQ_vertices_in3 + timeElastic_LSQ_vertices_out1 >= 1
  -timeElastic_LSQ_vertices_in4 + timeElastic_LSQ_vertices_out1 >= 1
  -timeElastic_LSQ_vertices_in5 + timeElastic_LSQ_vertices_out1 >= 1
  -timeElastic_LSQ_vertices_in6 + timeElastic_LSQ_vertices_out1 >= 1
  -timeElastic_LSQ_vertices_in7 + timeElastic_LSQ_vertices_out1 >= 1
  -timeElastic_LSQ_vertices_in8 + timeElastic_LSQ_vertices_out1 >= 1
  -timeElastic_LSQ_vertices_in1 + timeElastic_LSQ_vertices_out2 >= 1
  -timeElastic_LSQ_vertices_in2 + timeElastic_LSQ_vertices_out2 >= 1
  -timeElastic_LSQ_vertices_in3 + timeElastic_LSQ_vertices_out2 >= 1
  -timeElastic_LSQ_vertices_in4 + timeElastic_LSQ_vertices_out2 >= 1
  -timeElastic_LSQ_vertices_in5 + timeElastic_LSQ_vertices_out2 >= 1
  -timeElastic_LSQ_vertices_in6 + timeElastic_LSQ_vertices_out2 >= 1
  -timeElastic_LSQ_vertices_in7 + timeElastic_LSQ_vertices_out2 >= 1
  -timeElastic_LSQ_vertices_in8 + timeElastic_LSQ_vertices_out2 >= 1
  -timeElastic_LSQ_vertices_in1 + timeElastic_LSQ_vertices_out3 >= 1
  -timeElastic_LSQ_vertices_in2 + timeElastic_LSQ_vertices_out3 >= 1
  -timeElastic_LSQ_vertices_in3 + timeElastic_LSQ_vertices_out3 >= 1
  -timeElastic_LSQ_vertices_in4 + timeElastic_LSQ_vertices_out3 >= 1
  -timeElastic_LSQ_vertices_in5 + timeElastic_LSQ_vertices_out3 >= 1
  -timeElastic_LSQ_vertices_in6 + timeElastic_LSQ_vertices_out3 >= 1
  -timeElastic_LSQ_vertices_in7 + timeElastic_LSQ_vertices_out3 >= 1
  -timeElastic_LSQ_vertices_in8 + timeElastic_LSQ_vertices_out3 >= 1
  -timeElastic_MC_edges_in1 + timeElastic_MC_edges_out1 >= 1
  -timeElastic_MC_edges_in2 + timeElastic_MC_edges_out1 >= 1
  -timeElastic_MC_edges_in1 + timeElastic_MC_edges_out2 >= 1
  -timeElastic_MC_edges_in2 + timeElastic_MC_edges_out2 >= 1
  -timeElastic_MC_edges_in1 + timeElastic_MC_edges_out3 >= 1
  -timeElastic_MC_edges_in2 + timeElastic_MC_edges_out3 >= 1
Binary
  cst_0_phi_116_flop cst_1_phi_220_flop start_0_forkC_58_flop cst_10_phi_n265_flop forkC_5_cst_00_flop forkC_5_cst_12_flop forkC_5_cst_106_flop forkC_5_phiC_163_flop forkC_5_phiC_370_flop load_6_MC_edges207_flop load_10_MC_edges208_flop load_13_LSQ_vertices198_flop load_16_LSQ_vertices199_flop forkC_0_LSQ_vertices196_flop branch_3_sink_2214_flop branch_4_sink_3215_flop branchC_11_sink_4216_flop branchC_12_sink_5217_flop store_0_LSQ_vertices200_flop store_0_LSQ_vertices201_flop store_1_LSQ_vertices202_flop store_1_LSQ_vertices203_flop forkC_1_LSQ_vertices197_flop branchC_0_sink_0212_flop branch_1_ret_0194_flop branch_2_sink_1213_flop ret_0_end_0220_flop LSQ_vertices_load_1340_flop LSQ_vertices_load_1644_flop LSQ_vertices_end_0218_flop MC_edges_load_627_flop MC_edges_load_1036_flop MC_edges_end_0219_flop
End
